(set-logic HO_ALL)
(set-option :cegqi-all true)
(set-option :strings-exp true)
(declare-sort a 0)
(declare-sort f 0)
(declare-fun b ((-> a f Bool) f) Bool)
(assert (forall ((c f)) (b (lambda ((d a) (g f))
(exists ((e (-> a f Bool))) (not (b e g)))) c)))
(check-sat)
